NAME          DCAP_3_4_2_200_SS183
ROWS
 N  OBJ
 L  CON1
 L  CON2
 L  CON3
 L  CON4
 L  CON5
 L  CON6
 L  CON7
 L  CON8
 L  CON9
 L  CON10
 L  CON11
 L  CON12
 E  CON13
 E  CON14
 E  CON15
 E  CON16
 E  CON17
 E  CON18
 E  CON19
 E  CON20
COLUMNS
    x[1,1]    OBJ       6.180167      CON1      1.000000    
    x[1,1]    CON7      -1.000000     CON8      -1.000000   
    x[1,2]    OBJ       5.039546      CON2      1.000000    
    x[1,2]    CON8      -1.000000   
    x[2,1]    OBJ       6.732585      CON3      1.000000    
    x[2,1]    CON9      -1.000000     CON10     -1.000000   
    x[2,2]    OBJ       7.443064      CON4      1.000000    
    x[2,2]    CON10     -1.000000   
    x[3,1]    OBJ       6.563535      CON5      1.000000    
    x[3,1]    CON11     -1.000000     CON12     -1.000000   
    x[3,2]    OBJ       6.054841      CON6      1.000000    
    x[3,2]    CON12     -1.000000   
    MARKER    'MARKER'                'INTORG'
    u[1,1]    OBJ       48.076654     CON1      -1.000000   
    u[1,2]    OBJ       49.466655     CON2      -1.000000   
    u[2,1]    OBJ       49.996186     CON3      -1.000000   
    u[2,2]    OBJ       32.230043     CON4      -1.000000   
    u[3,1]    OBJ       20.066487     CON5      -1.000000   
    u[3,2]    OBJ       27.484319     CON6      -1.000000   
    y[1,1,1]  OBJ       6.528825      CON7      1.411008    
    y[1,1,1]  CON13     1.000000    
    y[1,1,2]  OBJ       7.800114      CON8      0.671743    
    y[1,1,2]  CON14     1.000000    
    y[1,2,1]  OBJ       5.849790      CON7      0.525237    
    y[1,2,1]  CON15     1.000000    
    y[1,2,2]  OBJ       5.825089      CON8      1.498723    
    y[1,2,2]  CON16     1.000000    
    y[1,3,1]  OBJ       9.834856      CON7      0.716834    
    y[1,3,1]  CON17     1.000000    
    y[1,3,2]  OBJ       5.393460      CON8      0.829054    
    y[1,3,2]  CON18     1.000000    
    y[1,4,1]  OBJ       9.756729      CON7      1.435580    
    y[1,4,1]  CON19     1.000000    
    y[1,4,2]  OBJ       9.184198      CON8      1.416687    
    y[1,4,2]  CON20     1.000000    
    y[2,1,1]  OBJ       5.350427      CON9      1.411008    
    y[2,1,1]  CON13     1.000000    
    y[2,1,2]  OBJ       7.363699      CON10     0.671743    
    y[2,1,2]  CON14     1.000000    
    y[2,2,1]  OBJ       5.751085      CON9      0.525237    
    y[2,2,1]  CON15     1.000000    
    y[2,2,2]  OBJ       5.502408      CON10     1.498723    
    y[2,2,2]  CON16     1.000000    
    y[2,3,1]  OBJ       9.274706      CON9      0.716834    
    y[2,3,1]  CON17     1.000000    
    y[2,3,2]  OBJ       9.551701      CON10     0.829054    
    y[2,3,2]  CON18     1.000000    
    y[2,4,1]  OBJ       7.056216      CON9      1.435580    
    y[2,4,1]  CON19     1.000000    
    y[2,4,2]  OBJ       7.307953      CON10     1.416687    
    y[2,4,2]  CON20     1.000000    
    y[3,1,1]  OBJ       5.332792      CON11     1.411008    
    y[3,1,1]  CON13     1.000000    
    y[3,1,2]  OBJ       9.580353      CON12     0.671743    
    y[3,1,2]  CON14     1.000000    
    y[3,2,1]  OBJ       8.252332      CON11     0.525237    
    y[3,2,1]  CON15     1.000000    
    y[3,2,2]  OBJ       5.359402      CON12     1.498723    
    y[3,2,2]  CON16     1.000000    
    y[3,3,1]  OBJ       6.769658      CON11     0.716834    
    y[3,3,1]  CON17     1.000000    
    y[3,3,2]  OBJ       8.552483      CON12     0.829054    
    y[3,3,2]  CON18     1.000000    
    y[3,4,1]  OBJ       9.515567      CON11     1.435580    
    y[3,4,1]  CON19     1.000000    
    y[3,4,2]  OBJ       5.493946      CON12     1.416687    
    y[3,4,2]  CON20     1.000000    
    z[1,1]    OBJ       653.975208    CON13     1.000000    
    z[1,2]    OBJ       711.939325    CON14     1.000000    
    z[2,1]    OBJ       639.699560    CON15     1.000000    
    z[2,2]    OBJ       962.156586    CON16     1.000000    
    z[3,1]    OBJ       983.720275    CON17     1.000000    
    z[3,2]    OBJ       633.219310    CON18     1.000000    
    z[4,1]    OBJ       675.324014    CON19     1.000000    
    z[4,2]    OBJ       915.349966    CON20     1.000000    
    MARKER    'MARKER'                 'INTEND'
RHS
    RHS       CON1      -0.000000     CON2      -0.000000   
    RHS       CON3      -0.000000     CON4      -0.000000   
    RHS       CON5      -0.000000     CON6      -0.000000   
    RHS       CON7      -0.000000     CON8      -0.000000   
    RHS       CON9      -0.000000     CON10     -0.000000   
    RHS       CON11     -0.000000     CON12     -0.000000   
    RHS       CON13     1.000000      CON14     1.000000    
    RHS       CON15     1.000000      CON16     1.000000    
    RHS       CON17     1.000000      CON18     1.000000    
    RHS       CON19     1.000000      CON20     1.000000    
BOUNDS
 BV BOUND     u[1,1]  
 BV BOUND     u[1,2]  
 BV BOUND     u[2,1]  
 BV BOUND     u[2,2]  
 BV BOUND     u[3,1]  
 BV BOUND     u[3,2]  
 BV BOUND     y[1,1,1]
 BV BOUND     y[1,1,2]
 BV BOUND     y[1,2,1]
 BV BOUND     y[1,2,2]
 BV BOUND     y[1,3,1]
 BV BOUND     y[1,3,2]
 BV BOUND     y[1,4,1]
 BV BOUND     y[1,4,2]
 BV BOUND     y[2,1,1]
 BV BOUND     y[2,1,2]
 BV BOUND     y[2,2,1]
 BV BOUND     y[2,2,2]
 BV BOUND     y[2,3,1]
 BV BOUND     y[2,3,2]
 BV BOUND     y[2,4,1]
 BV BOUND     y[2,4,2]
 BV BOUND     y[3,1,1]
 BV BOUND     y[3,1,2]
 BV BOUND     y[3,2,1]
 BV BOUND     y[3,2,2]
 BV BOUND     y[3,3,1]
 BV BOUND     y[3,3,2]
 BV BOUND     y[3,4,1]
 BV BOUND     y[3,4,2]
 BV BOUND     z[1,1]  
 BV BOUND     z[1,2]  
 BV BOUND     z[2,1]  
 BV BOUND     z[2,2]  
 BV BOUND     z[3,1]  
 BV BOUND     z[3,2]  
 BV BOUND     z[4,1]  
 BV BOUND     z[4,2]  
ENDATA
